c Generated map
c Size: 10 * 10, weights in range: 1 to 10, walls: True, with ratio 0.1
c dim 6 of 6
c
p sp 100 141
c graph contains 100 nodes and 141 arcs
c
a 1 11 5
a 11 1 5
a 1 2 2
a 2 1 2
a 2 12 6
a 12 2 6
a 2 3 8
a 3 2 8
a 3 13 9
a 13 3 9
a 3 4 4
a 4 3 4
a 4 14 3
a 14 4 3
a 4 5 8
a 5 4 8
a 5 15 9
a 15 5 9
a 5 6 7
a 6 5 7
a 6 16 1
a 16 6 1
a 6 7 7
a 7 6 7
a 7 17 6
a 17 7 6
a 7 8 5
a 8 7 5
a 8 18 10
a 18 8 10
a 8 9 2
a 9 8 2
a 9 10 5
a 10 9 5
a 10 20 7
a 20 10 7
a 11 21 6
a 21 11 6
a 11 12 10
a 12 11 10
a 12 22 6
a 22 12 6
a 12 13 3
a 13 12 3
a 13 23 6
a 23 13 6
a 13 14 2
a 14 13 2
a 14 24 10
a 24 14 10
a 14 15 10
a 15 14 10
a 15 25 8
a 25 15 8
a 15 16 3
a 16 15 3
a 16 26 9
a 26 16 9
a 16 17 3
a 17 16 3
a 17 27 3
a 27 17 3
a 17 18 8
a 18 17 8
a 18 28 5
a 28 18 5
a 20 30 8
a 30 20 8
a 21 31 4
a 31 21 4
a 21 22 6
a 22 21 6
a 22 32 6
a 32 22 6
a 22 23 10
a 23 22 10
a 23 33 5
a 33 23 5
a 23 24 5
a 24 23 5
a 24 34 3
a 34 24 3
a 24 25 3
a 25 24 3
a 25 35 2
a 35 25 2
a 25 26 1
a 26 25 1
a 26 36 1
a 36 26 1
a 26 27 7
a 27 26 7
a 27 37 2
a 37 27 2
a 27 28 2
a 28 27 2
a 28 29 7
a 29 28 7
a 29 39 3
a 39 29 3
a 29 30 8
a 30 29 8
a 30 40 2
a 40 30 2
a 31 41 3
a 41 31 3
a 31 32 10
a 32 31 10
a 32 42 7
a 42 32 7
a 32 33 5
a 33 32 5
a 33 34 7
a 34 33 7
a 34 44 10
a 44 34 10
a 34 35 7
a 35 34 7
a 35 45 9
a 45 35 9
a 35 36 3
a 36 35 3
a 36 37 2
a 37 36 2
a 37 47 10
a 47 37 10
a 39 49 8
a 49 39 8
a 39 40 2
a 40 39 2
a 40 50 3
a 50 40 3
a 41 51 3
a 51 41 3
a 41 42 4
a 42 41 4
a 44 54 5
a 54 44 5
a 44 45 5
a 45 44 5
a 45 55 3
a 55 45 3
a 47 57 8
a 57 47 8
a 47 48 9
a 48 47 9
a 48 58 7
a 58 48 7
a 48 49 5
a 49 48 5
a 49 59 9
a 59 49 9
a 49 50 1
a 50 49 1
a 50 60 7
a 60 50 7
a 51 61 8
a 61 51 8
a 53 63 10
a 63 53 10
a 53 54 4
a 54 53 4
a 54 55 5
a 55 54 5
a 55 65 2
a 65 55 2
a 55 56 7
a 56 55 7
a 56 66 5
a 66 56 5
a 56 57 8
a 57 56 8
a 57 67 8
a 67 57 8
a 57 58 7
a 58 57 7
a 58 68 9
a 68 58 9
a 58 59 5
a 59 58 5
a 59 69 8
a 69 59 8
a 59 60 10
a 60 59 10
a 60 70 2
a 70 60 2
a 61 71 1
a 71 61 1
a 61 62 4
a 62 61 4
a 62 72 7
a 72 62 7
a 62 63 10
a 63 62 10
a 63 73 5
a 73 63 5
a 65 75 7
a 75 65 7
a 65 66 10
a 66 65 10
a 66 76 9
a 76 66 9
a 66 67 7
a 67 66 7
a 67 68 2
a 68 67 2
a 68 78 2
a 78 68 2
a 68 69 4
a 69 68 4
a 69 70 8
a 70 69 8
a 70 80 8
a 80 70 8
a 71 81 6
a 81 71 6
a 71 72 8
a 72 71 8
a 72 82 5
a 82 72 5
a 72 73 2
a 73 72 2
a 73 83 9
a 83 73 9
a 73 74 9
a 74 73 9
a 74 84 10
a 84 74 10
a 74 75 9
a 75 74 9
a 75 85 7
a 85 75 7
a 75 76 8
a 76 75 8
a 78 88 10
a 88 78 10
a 80 90 8
a 90 80 8
a 81 91 7
a 91 81 7
a 81 82 8
a 82 81 8
a 82 92 9
a 92 82 9
a 82 83 6
a 83 82 6
a 83 93 4
a 93 83 4
a 83 84 4
a 84 83 4
a 84 85 2
a 85 84 2
a 85 95 1
a 95 85 1
a 87 97 2
a 97 87 2
a 87 88 3
a 88 87 3
a 88 98 3
a 98 88 3
a 88 89 10
a 89 88 10
a 89 99 7
a 99 89 7
a 89 90 8
a 90 89 8
a 90 100 4
a 100 90 4
a 91 92 2
a 92 91 2
a 92 93 5
a 93 92 5
a 95 96 3
a 96 95 3
a 96 97 1
a 97 96 1
a 97 98 4
a 98 97 4
a 98 99 10
a 99 98 10
a 99 100 10
a 100 99 10
